DIMACS2
80 612 271 431 32 630 330 387 506 241 189 223 626 307 436 212 47 286 58 503 417 358 388 625 75 172 636 542 326 275 364 476 616 324 422 465 185 607 621 91 483 593 151 61 517 301 65 521 24 251 209 265 174 389 131 140 160 264 602 327 97 399 62 467 308 102 141 596 188 294 494 110 234 287 7 300 116 472 296 79 40
p edge 640 2624
e 0 377 2.0
e 0 105 1.0
e 0 582 1.0
e 0 326 23.0
e 1 372 1.0
e 1 557 1.0
e 1 28 1.0
e 1 399 30.0
e 2 362 1.0
e 2 393 1.0
e 2 108 1.0
e 2 202 1.0
e 3 388 10.0
e 3 513 2.0
e 3 348 2.0
e 3 204 1.0
e 4 382 1.0
e 4 104 1.0
e 4 86 2.0
e 4 560 1.0
e 5 504 2.0
e 5 236 2.0
e 5 137 1.0
e 5 485 1.0
e 6 290 1.0
e 6 629 1.0
e 6 637 1.0
e 6 42 2.0
e 7 450 25.0
e 7 633 18.0
e 7 107 38.0
e 7 1 8.0
e 7 431 43.0
e 7 436 29.0
e 7 286 49.0
e 7 542 39.0
e 8 513 2.0
e 8 431 33.0
e 8 590 1.0
e 8 84 1.0
e 9 318 1.0
e 9 432 2.0
e 9 171 1.0
e 9 552 1.0
e 10 454 1.0
e 10 207 1.0
e 10 325 2.0
e 10 385 1.0
e 11 483 31.0
e 11 239 2.0
e 11 297 2.0
e 11 122 3.0
e 12 345 1.0
e 12 632 1.0
e 12 155 1.0
e 12 60 1.0
e 13 380 1.0
e 13 348 1.0
e 13 516 2.0
e 13 162 1.0
e 14 83 1.0
e 14 169 1.0
e 14 87 3.0
e 14 548 1.0
e 15 611 1.0
e 15 16 1.0
e 15 221 2.0
e 15 316 1.0
e 16 110 37.0
e 16 449 1.0
e 16 333 1.0
e 16 626 13.0
e 17 177 2.0
e 17 99 1.0
e 17 288 1.0
e 17 208 1.0
e 18 515 1.0
e 18 164 1.0
e 18 454 2.0
e 18 455 1.0
e 19 535 1.0
e 19 605 1.0
e 19 621 22.0
e 19 625 46.0
e 20 473 2.0
e 20 250 1.0
e 20 246 2.0
e 20 176 1.0
e 21 630 10.0
e 21 358 24.0
e 21 24 34.0
e 21 530 1.0
e 22 115 1.0
e 22 356 1.0
e 22 376 3.0
e 22 357 2.0
e 23 454 2.0
e 23 358 24.0
e 23 503 19.0
e 23 505 1.0
e 24 378 42.0
e 24 48 22.0
e 24 254 46.0
e 24 341 24.0
e 24 209 41.0
e 25 625 11.0
e 25 636 36.0
e 25 230 1.0
e 25 618 1.0
e 26 501 1.0
e 26 293 2.0
e 26 634 1.0
e 26 31 2.0
e 27 243 1.0
e 27 229 1.0
e 27 394 1.0
e 27 449 1.0
e 28 82 1.0
e 28 136 1.0
e 28 119 1.0
e 28 23 1.0
e 29 158 2.0
e 29 318 1.0
e 29 237 1.0
e 29 128 1.0
e 30 49 2.0
e 30 96 1.0
e 30 304 1.0
e 30 299 1.0
e 31 593 28.0
e 31 132 1.0
e 31 479 1.0
e 31 357 1.0
e 32 175 21.0
e 32 500 4.0
e 32 449 37.0
e 32 616 32.0
e 33 570 2.0
e 33 307 40.0
e 33 610 1.0
e 33 154 2.0
e 34 90 1.0
e 34 78 1.0
e 34 559 1.0
e 34 200 1.0
e 35 195 2.0
e 35 501 2.0
e 35 544 2.0
e 35 629 2.0
e 36 44 1.0
e 36 145 1.0
e 36 176 1.0
e 36 82 1.0
e 37 487 1.0
e 37 192 1.0
e 37 135 1.0
e 37 151 43.0
e 38 570 1.0
e 38 329 1.0
e 38 335 2.0
e 38 406 1.0
e 39 503 3.0
e 39 408 1.0
e 39 487 1.0
e 39 225 1.0
e 40 80 28.0
e 40 332 16.0
e 40 398 1.0
e 40 496 25.0
e 40 65 9.0
e 40 465 2.0
e 40 324 18.0
e 41 508 1.0
e 41 106 1.0
e 41 514 1.0
e 41 499 1.0
e 42 209 14.0
e 42 133 2.0
e 42 305 1.0
e 42 1 1.0
e 43 287 32.0
e 43 573 1.0
e 43 28 1.0
e 43 331 1.0
e 44 339 1.0
e 44 613 2.0
e 44 230 1.0
e 44 67 1.0
e 45 82 1.0
e 45 449 2.0
e 45 1 1.0
e 45 221 2.0
e 46 95 1.0
e 46 552 1.0
e 46 83 1.0
e 46 228 2.0
e 47 111 1.0
e 47 539 43.0
e 47 288 7.0
e 47 12 7.0
e 47 431 13.0
e 47 465 13.0
e 48 490 1.0
e 48 88 2.0
e 48 468 1.0
e 48 348 2.0
e 49 178 1.0
e 49 353 1.0
e 49 161 2.0
e 49 0 1.0
e 50 184 1.0
e 50 23 1.0
e 50 162 1.0
e 50 511 1.0
e 51 584 1.0
e 51 619 1.0
e 51 33 1.0
e 51 245 1.0
e 52 405 1.0
e 52 337 1.0
e 52 426 1.0
e 52 122 1.0
e 53 575 2.0
e 53 94 1.0
e 53 516 1.0
e 53 501 1.0
e 54 263 1.0
e 54 622 1.0
e 54 531 1.0
e 54 61 10.0
e 55 356 1.0
e 55 360 3.0
e 55 124 1.0
e 55 534 2.0
e 56 611 1.0
e 56 620 1.0
e 56 107 1.0
e 56 457 1.0
e 57 531 1.0
e 57 213 2.0
e 57 400 1.0
e 57 190 1.0
e 58 296 9.0
e 58 615 1.0
e 58 6 12.0
e 58 166 44.0
e 59 545 1.0
e 59 199 1.0
e 59 473 1.0
e 59 578 3.0
e 60 90 2.0
e 60 525 1.0
e 60 385 1.0
e 60 527 1.0
e 61 62 27.0
e 61 454 18.0
e 61 60 20.0
e 61 361 14.0
e 62 495 37.0
e 62 243 1.0
e 62 428 18.0
e 62 547 11.0
e 62 24 7.0
e 63 562 1.0
e 63 612 29.0
e 63 297 1.0
e 63 481 1.0
e 64 610 1.0
e 64 32 28.0
e 64 181 1.0
e 64 421 1.0
e 65 637 26.0
e 65 39 17.0
e 65 225 10.0
e 65 216 24.0
e 65 616 25.0
e 65 209 31.0
e 66 63 2.0
e 66 23 1.0
e 66 152 1.0
e 66 143 1.0
e 67 332 1.0
e 67 602 33.0
e 67 138 2.0
e 67 229 1.0
e 68 399 26.0
e 68 266 1.0
e 68 318 1.0
e 68 451 1.0
e 69 234 5.0
e 69 380 1.0
e 69 605 1.0
e 69 556 3.0
e 70 42 2.0
e 70 262 1.0
e 70 619 1.0
e 70 88 2.0
e 71 357 1.0
e 71 308 3.0
e 71 88 2.0
e 71 121 1.0
e 72 174 43.0
e 72 331 1.0
e 72 524 1.0
e 72 421 1.0
e 73 104 1.0
e 73 523 1.0
e 73 157 2.0
e 73 595 1.0
e 74 556 1.0
e 74 575 2.0
e 74 181 1.0
e 74 520 1.0
e 75 561 43.0
e 75 474 13.0
e 75 1 20.0
e 75 324 8.0
e 76 373 1.0
e 76 606 1.0
e 76 265 42.0
e 76 326 4.0
e 77 477 2.0
e 77 573 1.0
e 77 237 1.0
e 77 496 1.0
e 78 611 1.0
e 78 469 1.0
e 78 84 1.0
e 78 310 1.0
e 79 499 40.0
e 79 72 14.0
e 79 404 37.0
e 79 62 49.0
e 80 54 1.0
e 80 213 2.0
e 80 562 2.0
e 80 633 1.0
e 81 74 1.0
e 81 198 1.0
e 81 174 25.0
e 81 447 1.0
e 82 609 1.0
e 82 41 1.0
e 82 255 1.0
e 82 22 1.0
e 83 411 1.0
e 83 71 1.0
e 83 135 1.0
e 83 73 1.0
e 84 150 1.0
e 84 341 1.0
e 84 585 2.0
e 84 74 1.0
e 85 605 1.0
e 85 430 1.0
e 85 203 2.0
e 85 399 12.0
e 86 499 2.0
e 86 111 1.0
e 86 98 1.0
e 86 32 9.0
e 87 39 1.0
e 87 502 1.0
e 87 470 1.0
e 87 185 37.0
e 88 383 2.0
e 88 565 2.0
e 88 155 2.0
e 88 230 1.0
e 89 57 2.0
e 89 247 1.0
e 89 512 2.0
e 89 586 1.0
e 90 263 1.0
e 90 115 1.0
e 90 415 1.0
e 90 142 2.0
e 91 364 7.0
e 91 626 40.0
e 91 64 10.0
e 91 377 28.0
e 91 596 44.0
e 91 151 33.0
e 92 340 1.0
e 92 134 1.0
e 92 561 1.0
e 92 585 1.0
e 93 63 1.0
e 93 83 1.0
e 93 578 1.0
e 93 365 1.0
e 94 265 20.0
e 94 483 43.0
e 94 179 1.0
e 94 560 1.0
e 95 502 1.0
e 95 402 1.0
e 95 438 1.0
e 95 205 1.0
e 96 613 1.0
e 96 583 1.0
e 96 225 1.0
e 96 196 2.0
e 97 287 20.0
e 97 84 39.0
e 97 556 18.0
e 97 450 27.0
e 97 62 21.0
e 97 387 2.0
e 98 383 1.0
e 98 510 1.0
e 98 534 1.0
e 98 250 2.0
e 99 32 48.0
e 99 203 1.0
e 99 293 1.0
e 99 204 1.0
e 100 637 1.0
e 100 86 1.0
e 100 539 1.0
e 100 141 39.0
e 101 552 1.0
e 101 527 1.0
e 101 351 1.0
e 101 33 1.0
e 102 279 18.0
e 102 369 30.0
e 102 165 8.0
e 102 591 49.0
e 103 118 1.0
e 103 433 1.0
e 103 597 2.0
e 103 41 1.0
e 104 233 1.0
e 104 487 1.0
e 104 416 1.0
e 104 161 3.0
e 105 60 1.0
e 105 234 14.0
e 105 535 1.0
e 106 113 1.0
e 106 635 2.0
e 106 534 1.0
e 106 1 1.0
e 107 607 49.0
e 107 1 1.0
e 107 435 2.0
e 107 260 1.0
e 108 331 1.0
e 108 425 1.0
e 108 272 1.0
e 108 292 1.0
e 109 107 1.0
e 109 367 1.0
e 109 350 2.0
e 109 462 2.0
e 110 299 11.0
e 110 597 1.0
e 110 92 7.0
e 110 346 29.0
e 111 364 6.0
e 111 245 1.0
e 111 20 1.0
e 111 349 1.0
e 112 15 2.0
e 112 332 2.0
e 112 275 41.0
e 112 500 2.0
e 113 413 1.0
e 113 604 1.0
e 113 618 1.0
e 113 389 5.0
e 114 353 3.0
e 114 37 3.0
e 114 348 1.0
e 114 395 1.0
e 115 23 1.0
e 115 108 2.0
e 115 247 1.0
e 115 75 13.0
e 116 599 14.0
e 116 490 40.0
e 116 155 11.0
e 116 480 49.0
e 116 97 28.0
e 117 447 2.0
e 117 502 1.0
e 117 280 1.0
e 117 475 1.0
e 118 160 31.0
e 118 255 1.0
e 118 636 15.0
e 118 595 1.0
e 119 89 2.0
e 119 574 1.0
e 119 31 1.0
e 119 32 16.0
e 120 480 1.0
e 120 114 1.0
e 120 556 1.0
e 120 253 1.0
e 121 173 2.0
e 121 75 35.0
e 121 473 1.0
e 121 155 1.0
e 122 296 38.0
e 122 608 1.0
e 122 368 1.0
e 122 238 2.0
e 123 237 2.0
e 123 184 1.0
e 123 2 1.0
e 123 390 1.0
e 124 377 1.0
e 124 579 1.0
e 124 279 1.0
e 124 413 3.0
e 125 232 1.0
e 125 64 1.0
e 125 161 3.0
e 125 112 1.0
e 126 96 1.0
e 126 266 1.0
e 126 331 1.0
e 126 34 1.0
e 127 284 1.0
e 127 527 1.0
e 127 411 1.0
e 127 627 1.0
e 128 631 1.0
e 128 125 1.0
e 128 214 1.0
e 128 454 1.0
e 129 242 1.0
e 129 120 1.0
e 129 221 1.0
e 129 320 1.0
e 130 42 1.0
e 130 47 15.0
e 130 604 2.0
e 130 637 1.0
e 131 318 34.0
e 131 206 31.0
e 131 283 6.0
e 131 394 28.0
e 132 236 2.0
e 132 162 1.0
e 132 63 1.0
e 132 465 44.0
e 133 569 1.0
e 133 484 1.0
e 133 474 1.0
e 133 265 15.0
e 134 443 1.0
e 134 68 1.0
e 134 471 2.0
e 134 130 1.0
e 135 9 1.0
e 135 398 1.0
e 135 53 1.0
e 135 166 1.0
e 136 261 1.0
e 136 562 1.0
e 136 427 1.0
e 136 585 1.0
e 137 415 1.0
e 137 349 1.0
e 137 425 1.0
e 137 277 1.0
e 138 444 1.0
e 138 133 2.0
e 138 149 1.0
e 138 15 1.0
e 139 313 1.0
e 139 300 48.0
e 139 14 2.0
e 139 325 3.0
e 140 504 19.0
e 140 44 26.0
e 140 350 38.0
e 140 211 37.0
e 140 110 5.0
e 140 251 24.0
e 140 286 11.0
e 140 358 45.0
e 141 525 15.0
e 141 387 49.0
e 141 320 44.0
e 141 499 24.0
e 141 358 34.0
e 142 529 2.0
e 142 543 3.0
e 142 91 48.0
e 143 192 2.0
e 143 568 1.0
e 143 193 1.0
e 143 194 1.0
e 144 150 1.0
e 144 69 2.0
e 144 516 2.0
e 144 518 1.0
e 145 34 1.0
e 145 234 46.0
e 145 354 1.0
e 145 540 1.0
e 146 366 2.0
e 146 102 47.0
e 146 339 1.0
e 146 367 1.0
e 147 535 1.0
e 147 612 8.0
e 147 108 1.0
e 147 279 1.0
e 148 330 16.0
e 148 571 1.0
e 148 21 1.0
e 148 254 1.0
e 149 333 1.0
e 149 209 35.0
e 149 63 1.0
e 149 32 21.0
e 150 461 2.0
e 150 524 2.0
e 150 131 27.0
e 150 343 2.0
e 151 538 20.0
e 151 360 46.0
e 151 546 13.0
e 151 355 23.0
e 152 396 1.0
e 152 466 1.0
e 152 453 1.0
e 152 403 1.0
e 153 501 3.0
e 153 594 1.0
e 153 206 1.0
e 153 57 1.0
e 154 73 1.0
e 154 318 1.0
e 154 146 1.0
e 154 274 1.0
e 155 271 41.0
e 155 202 2.0
e 155 229 1.0
e 155 139 1.0
e 156 588 1.0
e 156 124 1.0
e 156 249 1.0
e 156 609 2.0
e 157 94 1.0
e 157 420 1.0
e 157 221 3.0
e 157 7 20.0
e 158 422 39.0
e 158 343 2.0
e 158 51 2.0
e 158 315 2.0
e 159 138 1.0
e 159 228 1.0
e 159 135 1.0
e 159 180 2.0
e 160 169 16.0
e 160 563 8.0
e 160 99 21.0
e 160 319 46.0
e 161 494 3.0
e 161 516 1.0
e 161 211 1.0
e 161 256 1.0
e 162 533 2.0
e 162 155 1.0
e 162 314 1.0
e 162 511 1.0
e 163 473 1.0
e 163 241 29.0
e 163 358 1.0
e 163 518 2.0
e 164 245 1.0
e 164 485 1.0
e 164 0 1.0
e 164 619 1.0
e 165 449 1.0
e 165 77 1.0
e 165 475 1.0
e 165 267 2.0
e 166 575 1.0
e 166 128 2.0
e 166 528 3.0
e 166 278 3.0
e 167 24 3.0
e 167 638 1.0
e 167 202 1.0
e 167 116 19.0
e 168 143 1.0
e 168 65 34.0
e 168 226 1.0
e 168 503 25.0
e 169 20 1.0
e 169 611 1.0
e 169 313 1.0
e 169 335 2.0
e 170 52 2.0
e 170 532 2.0
e 170 556 2.0
e 170 608 1.0
e 171 190 1.0
e 171 630 32.0
e 171 439 2.0
e 171 457 1.0
e 172 605 13.0
e 172 284 21.0
e 172 163 44.0
e 172 562 27.0
e 172 387 6.0
e 172 596 4.0
e 172 116 39.0
e 173 221 1.0
e 173 168 1.0
e 173 625 38.0
e 173 600 2.0
e 174 401 32.0
e 174 533 34.0
e 174 293 20.0
e 174 617 29.0
e 175 102 32.0
e 175 18 1.0
e 175 260 1.0
e 175 429 1.0
e 176 468 1.0
e 176 329 1.0
e 176 498 1.0
e 176 254 1.0
e 177 100 3.0
e 177 83 1.0
e 177 533 1.0
e 177 322 2.0
e 178 553 1.0
e 178 530 1.0
e 178 321 1.0
e 178 521 25.0
e 179 437 1.0
e 179 59 1.0
e 179 2 1.0
e 179 220 1.0
e 180 627 2.0
e 180 194 1.0
e 180 535 1.0
e 180 449 1.0
e 181 631 1.0
e 181 394 1.0
e 181 395 2.0
e 181 556 1.0
e 182 564 1.0
e 182 381 1.0
e 182 535 1.0
e 182 374 1.0
e 183 512 1.0
e 183 265 14.0
e 183 611 2.0
e 183 258 1.0
e 184 326 1.0
e 184 245 1.0
e 184 240 1.0
e 184 160 7.0
e 185 344 12.0
e 185 404 24.0
e 185 531 11.0
e 185 422 48.0
e 185 61 45.0
e 185 596 9.0
e 186 54 1.0
e 186 399 22.0
e 186 127 1.0
e 186 97 22.0
e 187 535 1.0
e 187 523 1.0
e 187 161 1.0
e 187 400 1.0
e 188 568 47.0
e 188 586 8.0
e 188 318 49.0
e 188 246 22.0
e 188 596 12.0
e 188 467 43.0
e 189 578 32.0
e 189 6 42.0
e 189 174 35.0
e 189 180 23.0
e 189 212 6.0
e 190 95 1.0
e 190 514 1.0
e 190 548 2.0
e 190 155 1.0
e 191 203 2.0
e 191 94 1.0
e 191 571 1.0
e 191 111 1.0
e 192 509 1.0
e 192 472 2.0
e 192 545 1.0
e 192 534 2.0
e 193 82 1.0
e 193 64 1.0
e 193 119 2.0
e 193 544 1.0
e 194 182 1.0
e 194 363 1.0
e 194 65 4.0
e 194 189 14.0
e 195 247 3.0
e 195 506 7.0
e 195 106 1.0
e 195 361 2.0
e 196 356 1.0
e 196 433 1.0
e 196 324 30.0
e 196 220 1.0
e 197 480 1.0
e 197 303 1.0
e 197 161 2.0
e 197 589 1.0
e 198 227 1.0
e 198 353 1.0
e 198 328 2.0
e 198 475 1.0
e 199 479 1.0
e 199 54 1.0
e 199 223 40.0
e 199 404 1.0
e 200 459 2.0
e 200 602 27.0
e 200 503 35.0
e 200 609 1.0
e 201 329 1.0
e 201 397 1.0
e 201 545 2.0
e 201 43 1.0
e 202 599 1.0
e 202 539 2.0
e 202 236 1.0
e 202 185 10.0
e 203 34 2.0
e 203 184 1.0
e 203 619 1.0
e 203 115 1.0
e 204 542 42.0
e 204 452 1.0
e 204 118 1.0
e 204 131 13.0
e 205 473 1.0
e 205 320 1.0
e 205 628 1.0
e 205 173 2.0
e 206 610 2.0
e 206 16 2.0
e 206 536 1.0
e 206 273 1.0
e 207 196 2.0
e 207 306 1.0
e 207 629 1.0
e 207 512 1.0
e 208 620 1.0
e 208 484 1.0
e 208 53 3.0
e 208 520 1.0
e 209 70 4.0
e 209 23 11.0
e 209 408 21.0
e 209 390 28.0
e 210 455 1.0
e 210 391 1.0
e 210 6 1.0
e 210 111 1.0
e 211 179 1.0
e 211 52 1.0
e 211 372 1.0
e 211 251 8.0
e 212 529 35.0
e 212 553 26.0
e 212 518 48.0
e 212 301 38.0
e 212 506 29.0
e 212 47 17.0
e 212 607 30.0
e 213 234 4.0
e 213 480 2.0
e 213 29 2.0
e 213 219 2.0
e 214 265 2.0
e 214 541 2.0
e 214 92 2.0
e 214 627 1.0
e 215 582 1.0
e 215 497 1.0
e 215 266 2.0
e 216 246 1.0
e 216 321 2.0
e 216 67 2.0
e 216 493 2.0
e 217 414 1.0
e 217 547 1.0
e 217 200 1.0
e 217 6 1.0
e 218 248 1.0
e 218 473 1.0
e 218 201 1.0
e 218 160 33.0
e 219 495 2.0
e 219 69 2.0
e 219 504 1.0
e 219 472 33.0
e 220 117 1.0
e 220 254 1.0
e 220 114 1.0
e 220 59 1.0
e 221 187 3.0
e 221 519 1.0
e 221 350 1.0
e 221 329 2.0
e 222 152 1.0
e 222 83 1.0
e 222 450 1.0
e 222 150 1.0
e 223 615 48.0
e 223 237 26.0
e 223 499 32.0
e 223 410 14.0
e 223 40 34.0
e 224 73 1.0
e 224 173 1.0
e 224 22 1.0
e 224 609 1.0
e 225 55 1.0
e 225 49 1.0
e 225 483 18.0
e 225 164 1.0
e 226 301 32.0
e 226 535 1.0
e 226 552 1.0
e 226 131 40.0
e 227 79 16.0
e 227 520 2.0
e 227 526 1.0
e 227 466 1.0
e 228 512 1.0
e 228 245 1.0
e 228 73 2.0
e 228 164 1.0
e 229 597 1.0
e 229 546 1.0
e 229 82 1.0
e 229 421 1.0
e 230 231 1.0
e 230 161 1.0
e 230 110 36.0
e 230 58 27.0
e 231 286 12.0
e 231 119 1.0
e 231 538 1.0
e 231 556 1.0
e 232 172 2.0
e 232 612 15.0
e 232 475 1.0
e 232 350 1.0
e 233 513 1.0
e 233 23 1.0
e 233 471 1.0
e 233 404 1.0
e 234 569 9.0
e 234 81 17.0
e 234 541 22.0
e 234 35 40.0
e 235 582 2.0
e 235 37 1.0
e 235 49 3.0
e 235 24 3.0
e 236 255 1.0
e 236 165 2.0
e 236 406 1.0
e 236 601 2.0
e 237 302 1.0
e 237 402 1.0
e 237 274 1.0
e 237 468 2.0
e 238 157 1.0
e 238 593 2.0
e 238 94 2.0
e 238 471 1.0
e 239 449 3.0
e 239 160 1.0
e 239 419 1.0
e 239 137 2.0
e 240 464 1.0
e 240 227 1.0
e 240 481 1.0
e 240 91 39.0
e 241 509 40.0
e 241 471 11.0
e 241 290 9.0
e 241 260 34.0
e 241 387 24.0
e 241 467 15.0
e 241 542 28.0
e 242 169 1.0
e 242 136 1.0
e 242 432 3.0
e 242 256 1.0
e 243 116 32.0
e 243 254 1.0
e 243 503 24.0
e 243 130 1.0
e 244 289 1.0
e 244 173 2.0
e 244 319 1.0
e 244 337 1.0
e 245 13 1.0
e 245 32 14.0
e 245 42 1.0
e 245 155 1.0
e 246 498 2.0
e 246 637 1.0
e 246 395 2.0
e 246 166 1.0
e 247 57 1.0
e 247 591 1.0
e 247 495 2.0
e 247 599 1.0
e 248 632 2.0
e 248 210 1.0
e 248 453 1.0
e 248 434 2.0
e 249 279 1.0
e 249 512 1.0
e 249 438 1.0
e 249 555 1.0
e 250 51 1.0
e 250 436 30.0
e 250 576 2.0
e 250 225 1.0
e 251 537 27.0
e 251 414 4.0
e 251 631 48.0
e 251 94 17.0
e 252 387 44.0
e 252 13 1.0
e 252 521 29.0
e 252 584 1.0
e 253 578 1.0
e 253 180 2.0
e 253 490 1.0
e 253 479 1.0
e 254 638 2.0
e 254 53 2.0
e 254 188 26.0
e 254 623 1.0
e 255 112 1.0
e 255 539 1.0
e 255 14 1.0
e 255 345 1.0
e 256 498 1.0
e 256 224 2.0
e 256 605 1.0
e 256 46 1.0
e 257 605 1.0
e 257 11 2.0
e 257 16 3.0
e 257 503 42.0
e 258 288 1.0
e 258 104 1.0
e 258 3 1.0
e 258 386 1.0
e 259 257 1.0
e 259 374 1.0
e 259 405 1.0
e 259 68 1.0
e 260 138 1.0
e 260 585 1.0
e 260 614 1.0
e 260 619 1.0
e 261 444 2.0
e 261 101 1.0
e 261 520 1.0
e 261 403 1.0
e 262 615 2.0
e 262 406 2.0
e 262 294 41.0
e 262 359 2.0
e 263 60 3.0
e 263 509 1.0
e 263 436 10.0
e 263 334 2.0
e 264 356 37.0
e 264 88 8.0
e 264 189 21.0
e 264 467 39.0
e 264 472 6.0
e 264 596 11.0
e 264 388 41.0
e 264 389 1.0
e 265 510 3.0
e 265 402 37.0
e 265 338 22.0
e 265 605 21.0
e 266 492 1.0
e 266 500 1.0
e 266 521 44.0
e 266 333 2.0
e 267 263 1.0
e 267 451 1.0
e 267 535 1.0
e 267 53 2.0
e 268 459 1.0
e 268 458 1.0
e 268 96 1.0
e 268 205 1.0
e 269 466 2.0
e 269 64 1.0
e 269 106 1.0
e 269 58 24.0
e 270 227 2.0
e 270 634 1.0
e 270 121 1.0
e 270 606 1.0
e 271 333 43.0
e 271 395 43.0
e 271 375 11.0
e 271 100 12.0
e 271 621 28.0
e 271 172 22.0
e 272 385 1.0
e 272 480 1.0
e 272 253 1.0
e 272 526 1.0
e 273 211 1.0
e 273 595 2.0
e 273 102 35.0
e 273 587 1.0
e 274 74 1.0
e 274 495 1.0
e 274 488 1.0
e 274 291 2.0
e 275 534 31.0
e 275 579 1.0
e 275 437 34.0
e 275 629 37.0
e 275 324 23.0
e 276 211 1.0
e 276 546 2.0
e 276 583 1.0
e 276 481 1.0
e 277 364 16.0
e 277 613 1.0
e 277 485 1.0
e 277 454 3.0
e 278 592 2.0
e 278 361 1.0
e 278 562 1.0
e 278 270 1.0
e 279 36 1.0
e 279 637 1.0
e 279 352 1.0
e 279 216 1.0
e 280 448 2.0
e 280 494 8.0
e 280 627 2.0
e 280 96 1.0
e 281 272 1.0
e 281 360 1.0
e 281 333 1.0
e 281 488 1.0
e 282 223 8.0
e 282 309 1.0
e 282 591 1.0
e 282 256 1.0
e 283 402 1.0
e 283 478 1.0
e 283 502 2.0
e 283 362 1.0
e 284 383 3.0
e 284 4 1.0
e 284 66 1.0
e 284 343 1.0
e 285 464 2.0
e 285 49 1.0
e 285 62 10.0
e 285 158 2.0
e 286 378 16.0
e 286 45 11.0
e 286 54 17.0
e 286 240 6.0
e 286 65 36.0
e 287 140 42.0
e 287 49 7.0
e 287 541 9.0
e 287 21 3.0
e 287 212 30.0
e 288 106 1.0
e 288 511 1.0
e 288 327 1.0
e 288 68 1.0
e 289 369 2.0
e 289 172 35.0
e 289 301 23.0
e 289 104 1.0
e 290 542 19.0
e 290 270 1.0
e 290 537 1.0
e 290 620 1.0
e 291 95 1.0
e 291 61 3.0
e 291 342 2.0
e 291 473 2.0
e 292 207 1.0
e 292 60 1.0
e 292 105 2.0
e 292 486 1.0
e 293 320 1.0
e 293 353 1.0
e 293 434 1.0
e 293 203 2.0
e 294 568 43.0
e 294 406 9.0
e 294 171 27.0
e 294 66 6.0
e 294 467 10.0
e 294 327 1.0
e 295 463 2.0
e 295 522 1.0
e 295 32 6.0
e 295 3 1.0
e 296 397 41.0
e 296 501 44.0
e 296 511 8.0
e 296 177 48.0
e 297 154 1.0
e 297 243 1.0
e 297 272 1.0
e 297 601 1.0
e 298 554 1.0
e 298 496 1.0
e 298 43 1.0
e 298 535 1.0
e 299 234 30.0
e 299 542 3.0
e 299 425 1.0
e 299 581 1.0
e 300 54 46.0
e 300 592 16.0
e 300 620 36.0
e 300 492 2.0
e 300 296 28.0
e 300 607 35.0
e 300 223 17.0
e 301 475 37.0
e 301 285 24.0
e 301 468 1.0
e 301 421 27.0
e 302 53 1.0
e 302 297 3.0
e 302 625 11.0
e 302 638 1.0
e 303 513 1.0
e 303 502 1.0
e 303 430 1.0
e 303 495 1.0
e 304 602 22.0
e 304 419 1.0
e 304 557 1.0
e 304 464 1.0
e 305 411 1.0
e 305 333 1.0
e 305 587 1.0
e 305 38 1.0
e 306 105 2.0
e 306 317 1.0
e 306 157 1.0
e 306 346 1.0
e 307 305 18.0
e 307 487 14.0
e 307 379 28.0
e 307 17 31.0
e 308 231 25.0
e 308 376 19.0
e 308 587 5.0
e 308 294 47.0
e 308 286 3.0
e 308 75 12.0
e 309 88 1.0
e 309 288 1.0
e 309 507 1.0
e 309 13 1.0
e 310 181 1.0
e 310 92 2.0
e 310 572 3.0
e 310 558 2.0
e 311 425 1.0
e 311 303 1.0
e 311 6 2.0
e 311 177 2.0
e 312 407 1.0
e 312 430 1.0
e 312 171 1.0
e 312 80 1.0
e 313 315 1.0
e 313 239 1.0
e 313 162 1.0
e 313 507 1.0
e 314 540 1.0
e 314 389 22.0
e 314 13 2.0
e 314 56 1.0
e 315 60 3.0
e 315 549 1.0
e 315 539 1.0
e 315 418 1.0
e 316 571 1.0
e 316 280 1.0
e 316 323 1.0
e 316 441 2.0
e 317 68 1.0
e 317 67 1.0
e 317 509 2.0
e 317 438 1.0
e 318 113 1.0
e 318 71 1.0
e 318 596 45.0
e 318 491 1.0
e 319 188 32.0
e 319 275 18.0
e 319 614 1.0
e 319 221 1.0
e 320 98 1.0
e 320 417 41.0
e 320 612 23.0
e 320 419 1.0
e 321 405 3.0
e 321 232 1.0
e 321 263 2.0
e 321 327 9.0
e 322 393 2.0
e 322 60 2.0
e 322 54 1.0
e 322 239 1.0
e 323 560 1.0
e 323 556 2.0
e 323 586 1.0
e 323 262 1.0
e 324 474 38.0
e 324 397 27.0
e 324 322 12.0
e 324 519 18.0
e 325 528 2.0
e 325 205 1.0
e 325 48 2.0
e 325 405 1.0
e 326 254 37.0
e 326 107 36.0
e 326 212 23.0
e 326 338 25.0
e 326 131 28.0
e 326 607 14.0
e 327 360 12.0
e 327 9 11.0
e 327 446 36.0
e 327 490 3.0
e 327 241 14.0
e 328 458 1.0
e 328 273 2.0
e 328 546 1.0
e 328 436 24.0
e 329 200 1.0
e 329 396 2.0
e 329 567 1.0
e 329 301 43.0
e 330 209 22.0
e 330 534 21.0
e 330 560 10.0
e 330 332 37.0
e 330 251 43.0
e 330 140 47.0
e 331 10 2.0
e 331 629 2.0
e 331 26 1.0
e 331 210 1.0
e 332 358 40.0
e 332 586 1.0
e 332 562 1.0
e 332 398 1.0
e 333 340 1.0
e 333 464 2.0
e 333 325 1.0
e 333 19 2.0
e 334 565 1.0
e 334 47 38.0
e 334 471 1.0
e 334 146 1.0
e 335 277 1.0
e 335 118 1.0
e 335 174 21.0
e 335 370 2.0
e 336 353 1.0
e 336 372 1.0
e 336 138 1.0
e 336 495 1.0
e 337 117 1.0
e 337 404 1.0
e 337 417 13.0
e 337 302 2.0
e 338 321 2.0
e 338 315 1.0
e 338 61 24.0
e 338 104 1.0
e 339 56 1.0
e 339 479 1.0
e 339 547 1.0
e 339 372 1.0
e 340 601 2.0
e 340 190 2.0
e 340 79 29.0
e 340 323 2.0
e 341 548 1.0
e 341 69 1.0
e 341 165 2.0
e 341 538 1.0
e 342 49 1.0
e 342 307 37.0
e 342 235 1.0
e 342 275 46.0
e 343 613 2.0
e 343 116 49.0
e 343 555 1.0
e 343 280 2.0
e 344 270 1.0
e 344 304 1.0
e 344 343 1.0
e 344 394 1.0
e 345 485 1.0
e 345 545 2.0
e 345 551 2.0
e 345 525 1.0
e 346 368 1.0
e 346 370 1.0
e 346 121 1.0
e 346 291 2.0
e 347 95 1.0
e 347 22 1.0
e 347 469 2.0
e 347 370 1.0
e 348 427 1.0
e 348 124 1.0
e 348 446 2.0
e 348 59 1.0
e 349 581 1.0
e 349 348 1.0
e 349 130 2.0
e 349 228 1.0
e 350 624 2.0
e 350 606 2.0
e 350 297 2.0
e 350 83 1.0
e 351 262 2.0
e 351 429 1.0
e 351 274 2.0
e 351 151 44.0
e 352 152 1.0
e 352 74 1.0
e 352 477 3.0
e 352 84 1.0
e 353 622 2.0
e 353 442 1.0
e 353 380 1.0
e 354 252 2.0
e 354 485 2.0
e 354 244 1.0
e 354 33 2.0
e 355 499 1.0
e 355 356 1.0
e 355 404 1.0
e 355 465 12.0
e 356 392 1.0
e 356 492 1.0
e 356 602 20.0
e 356 137 1.0
e 357 234 40.0
e 357 404 1.0
e 357 76 1.0
e 357 260 2.0
e 358 295 30.0
e 358 472 16.0
e 358 260 37.0
e 358 537 48.0
e 359 569 1.0
e 359 217 1.0
e 359 130 1.0
e 359 505 1.0
e 360 556 2.0
e 360 293 1.0
e 360 204 1.0
e 360 49 1.0
e 361 364 32.0
e 361 208 1.0
e 361 397 1.0
e 361 131 24.0
e 362 458 1.0
e 362 409 1.0
e 362 75 35.0
e 362 398 1.0
e 363 250 2.0
e 363 317 2.0
e 363 361 3.0
e 363 86 1.0
e 364 525 1.0
e 364 389 5.0
e 364 199 17.0
e 364 141 34.0
e 365 21 1.0
e 365 247 2.0
e 365 455 1.0
e 365 403 1.0
e 366 476 19.0
e 366 336 2.0
e 366 337 2.0
e 366 43 1.0
e 367 232 1.0
e 367 618 2.0
e 367 67 1.0
e 367 489 1.0
e 368 564 1.0
e 368 365 1.0
e 368 455 1.0
e 368 166 1.0
e 369 279 2.0
e 369 510 1.0
e 369 459 3.0
e 369 167 2.0
e 370 174 40.0
e 370 41 1.0
e 370 464 2.0
e 370 423 2.0
e 371 188 24.0
e 371 55 1.0
e 371 389 9.0
e 371 613 1.0
e 372 421 1.0
e 372 442 1.0
e 372 328 1.0
e 372 470 1.0
e 373 82 1.0
e 373 254 1.0
e 373 146 1.0
e 373 193 1.0
e 374 157 1.0
e 374 307 49.0
e 374 113 1.0
e 374 308 20.0
e 375 24 30.0
e 375 152 1.0
e 375 80 2.0
e 375 351 1.0
e 376 111 1.0
e 376 498 2.0
e 376 447 1.0
e 376 244 1.0
e 377 502 2.0
e 377 2 1.0
e 377 52 1.0
e 377 565 1.0
e 378 422 17.0
e 378 207 1.0
e 378 159 1.0
e 378 160 2.0
e 379 315 1.0
e 379 636 27.0
e 379 346 1.0
e 379 105 2.0
e 380 483 40.0
e 380 241 9.0
e 380 436 29.0
e 380 601 1.0
e 381 481 1.0
e 381 333 1.0
e 381 227 2.0
e 381 29 1.0
e 382 18 1.0
e 382 631 1.0
e 382 301 31.0
e 382 332 1.0
e 383 463 1.0
e 383 375 1.0
e 383 454 1.0
e 383 129 1.0
e 384 255 1.0
e 384 163 1.0
e 384 295 1.0
e 384 229 1.0
e 385 263 2.0
e 385 541 1.0
e 385 177 1.0
e 385 19 1.0
e 386 158 3.0
e 386 559 1.0
e 386 214 1.0
e 386 521 7.0
e 387 243 40.0
e 387 463 16.0
e 387 361 15.0
e 387 296 46.0
e 388 169 35.0
e 388 146 23.0
e 388 113 16.0
e 388 374 13.0
e 388 91 17.0
e 389 412 49.0
e 389 150 15.0
e 389 544 49.0
e 389 450 9.0
e 390 409 1.0
e 390 541 1.0
e 390 102 46.0
e 390 49 1.0
e 391 86 1.0
e 391 54 1.0
e 391 574 1.0
e 391 138 1.0
e 392 110 1.0
e 392 287 32.0
e 392 8 1.0
e 392 441 1.0
e 393 233 1.0
e 393 574 1.0
e 393 234 32.0
e 393 533 1.0
e 394 573 1.0
e 394 79 14.0
e 394 361 1.0
e 394 95 1.0
e 395 458 1.0
e 395 22 1.0
e 395 432 1.0
e 395 513 1.0
e 396 308 10.0
e 396 629 1.0
e 396 259 1.0
e 396 227 2.0
e 397 541 1.0
e 397 72 1.0
e 397 388 11.0
e 397 598 1.0
e 398 619 1.0
e 398 273 3.0
e 398 479 1.0
e 398 221 1.0
e 399 636 16.0
e 399 36 39.0
e 399 268 5.0
e 399 595 21.0
e 400 292 1.0
e 400 337 1.0
e 400 599 1.0
e 400 297 1.0
e 401 5 1.0
e 401 287 15.0
e 401 592 1.0
e 401 249 1.0
e 402 357 1.0
e 402 540 1.0
e 402 195 2.0
e 402 79 21.0
e 403 515 1.0
e 403 360 1.0
e 403 73 1.0
e 403 325 1.0
e 404 68 1.0
e 404 334 1.0
e 404 181 1.0
e 404 366 1.0
e 405 599 1.0
e 405 434 1.0
e 405 543 1.0
e 405 351 1.0
e 406 491 1.0
e 406 97 4.0
e 406 560 1.0
e 407 254 2.0
e 407 209 35.0
e 407 276 1.0
e 407 295 1.0
e 408 203 2.0
e 408 234 7.0
e 408 580 1.0
e 408 527 1.0
e 409 513 1.0
e 409 72 1.0
e 409 423 2.0
e 409 629 1.0
e 410 83 1.0
e 410 72 1.0
e 410 435 2.0
e 410 62 13.0
e 411 512 2.0
e 411 569 1.0
e 411 114 2.0
e 411 593 39.0
e 412 164 1.0
e 412 351 1.0
e 412 2 1.0
e 412 606 1.0
e 413 18 1.0
e 413 422 40.0
e 413 415 2.0
e 413 173 1.0
e 414 127 1.0
e 414 407 1.0
e 414 603 2.0
e 414 527 2.0
e 415 249 1.0
e 415 31 1.0
e 415 304 2.0
e 415 554 2.0
e 416 95 1.0
e 416 543 1.0
e 416 228 1.0
e 416 89 1.0
e 417 228 48.0
e 417 468 3.0
e 417 584 25.0
e 417 372 43.0
e 418 547 1.0
e 418 328 1.0
e 418 99 1.0
e 418 422 13.0
e 419 136 1.0
e 419 167 1.0
e 419 569 1.0
e 419 629 2.0
e 420 83 1.0
e 420 546 2.0
e 420 58 16.0
e 420 217 2.0
e 421 307 3.0
e 421 2 1.0
e 421 250 2.0
e 421 585 1.0
e 422 570 31.0
e 422 375 18.0
e 422 608 34.0
e 422 330 37.0
e 423 186 1.0
e 423 332 1.0
e 423 521 45.0
e 423 530 2.0
e 424 368 1.0
e 424 530 2.0
e 424 425 1.0
e 424 295 2.0
e 425 481 1.0
e 425 508 1.0
e 425 474 1.0
e 425 600 1.0
e 426 224 1.0
e 426 129 1.0
e 426 37 1.0
e 426 130 1.0
e 427 434 1.0
e 427 365 1.0
e 427 413 1.0
e 427 328 1.0
e 428 420 2.0
e 428 337 1.0
e 428 371 1.0
e 428 492 2.0
e 429 0 1.0
e 429 554 1.0
e 429 111 1.0
e 429 250 1.0
e 430 366 2.0
e 430 22 1.0
e 430 423 1.0
e 430 593 40.0
e 431 503 29.0
e 431 505 24.0
e 431 635 32.0
e 431 337 32.0
e 432 277 1.0
e 432 85 1.0
e 432 459 3.0
e 432 227 3.0
e 433 281 1.0
e 433 159 1.0
e 433 403 1.0
e 433 229 1.0
e 434 284 1.0
e 434 161 2.0
e 434 390 1.0
e 434 160 29.0
e 435 142 2.0
e 435 372 2.0
e 435 307 39.0
e 435 152 2.0
e 436 523 30.0
e 436 102 8.0
e 436 624 13.0
e 436 311 7.0
e 437 242 1.0
e 437 136 1.0
e 437 295 3.0
e 437 556 3.0
e 438 532 1.0
e 438 594 1.0
e 438 156 1.0
e 438 418 1.0
e 439 498 1.0
e 439 367 1.0
e 439 169 1.0
e 439 134 1.0
e 440 341 1.0
e 440 577 1.0
e 440 619 1.0
e 440 64 1.0
e 441 152 1.0
e 441 348 1.0
e 441 170 1.0
e 441 99 1.0
e 442 459 1.0
e 442 575 2.0
e 442 106 2.0
e 442 602 48.0
e 443 615 1.0
e 443 636 17.0
e 443 156 2.0
e 443 509 1.0
e 444 601 1.0
e 444 522 1.0
e 444 598 2.0
e 444 482 1.0
e 445 441 1.0
e 445 344 1.0
e 445 195 1.0
e 445 171 1.0
e 446 563 1.0
e 446 572 1.0
e 446 634 1.0
e 446 55 1.0
e 447 518 1.0
e 447 103 1.0
e 447 60 1.0
e 447 193 1.0
e 448 210 1.0
e 448 75 15.0
e 448 128 3.0
e 448 80 1.0
e 449 605 1.0
e 449 131 15.0
e 449 218 1.0
e 449 56 1.0
e 450 328 3.0
e 450 353 1.0
e 450 356 1.0
e 450 626 9.0
e 451 51 1.0
e 451 518 2.0
e 451 570 1.0
e 451 489 1.0
e 452 101 1.0
e 452 300 16.0
e 452 110 42.0
e 452 307 5.0
e 453 440 1.0
e 453 202 2.0
e 453 466 1.0
e 453 122 1.0
e 454 262 1.0
e 454 618 1.0
e 454 295 2.0
e 454 347 1.0
e 455 151 39.0
e 455 602 40.0
e 455 109 1.0
e 455 422 44.0
e 456 201 1.0
e 456 416 1.0
e 456 9 2.0
e 456 87 2.0
e 457 356 1.0
e 457 210 1.0
e 457 593 34.0
e 457 191 1.0
e 458 442 1.0
e 458 146 1.0
e 458 345 1.0
e 458 295 1.0
e 459 520 1.0
e 459 464 1.0
e 459 331 1.0
e 459 620 1.0
e 460 91 6.0
e 460 216 1.0
e 460 559 3.0
e 460 550 1.0
e 461 557 2.0
e 461 424 3.0
e 461 47 24.0
e 461 412 2.0
e 462 581 1.0
e 462 170 2.0
e 462 79 9.0
e 462 78 1.0
e 463 458 1.0
e 463 194 2.0
e 463 359 1.0
e 463 511 1.0
e 464 607 2.0
e 464 196 2.0
e 464 163 2.0
e 464 348 2.0
e 465 466 26.0
e 465 418 25.0
e 465 506 10.0
e 465 68 21.0
e 466 569 1.0
e 466 153 1.0
e 466 618 1.0
e 466 635 2.0
e 467 466 48.0
e 467 189 33.0
e 467 475 49.0
e 467 360 1.0
e 468 145 1.0
e 468 211 1.0
e 468 621 7.0
e 468 133 1.0
e 469 231 2.0
e 469 417 5.0
e 469 299 2.0
e 469 203 2.0
e 470 13 1.0
e 470 74 1.0
e 470 282 3.0
e 470 500 2.0
e 471 539 1.0
e 471 187 2.0
e 471 93 2.0
e 471 292 1.0
e 472 443 20.0
e 472 424 8.0
e 472 363 38.0
e 472 624 11.0
e 473 87 1.0
e 473 117 2.0
e 473 637 2.0
e 473 286 16.0
e 474 221 1.0
e 474 432 1.0
e 474 536 1.0
e 474 85 2.0
e 475 128 1.0
e 475 4 1.0
e 475 512 1.0
e 475 182 1.0
e 476 353 22.0
e 476 600 26.0
e 476 505 40.0
e 476 417 11.0
e 476 185 2.0
e 476 431 26.0
e 476 264 41.0
e 476 636 17.0
e 477 425 1.0
e 477 389 13.0
e 477 424 1.0
e 477 178 1.0
e 478 292 1.0
e 478 258 1.0
e 478 442 2.0
e 478 415 1.0
e 479 637 1.0
e 479 210 1.0
e 479 187 1.0
e 479 211 1.0
e 480 231 1.0
e 480 518 1.0
e 480 606 1.0
e 480 146 1.0
e 481 85 1.0
e 481 146 1.0
e 481 21 1.0
e 481 562 1.0
e 482 442 1.0
e 482 270 1.0
e 482 66 1.0
e 482 573 1.0
e 483 637 19.0
e 483 455 1.0
e 483 221 39.0
e 483 579 14.0
e 484 5 1.0
e 484 379 1.0
e 484 164 1.0
e 484 175 1.0
e 485 464 1.0
e 485 528 3.0
e 485 49 1.0
e 485 213 1.0
e 486 392 1.0
e 486 201 1.0
e 486 249 1.0
e 486 152 1.0
e 487 461 1.0
e 487 353 1.0
e 487 453 2.0
e 487 372 1.0
e 488 352 1.0
e 488 335 1.0
e 488 506 24.0
e 488 417 43.0
e 489 284 1.0
e 489 541 1.0
e 489 253 1.0
e 490 471 1.0
e 490 448 1.0
e 490 499 1.0
e 490 414 1.0
e 491 515 1.0
e 491 251 32.0
e 491 524 1.0
e 491 364 49.0
e 492 220 2.0
e 492 383 1.0
e 492 27 1.0
e 492 248 1.0
e 493 547 1.0
e 493 265 3.0
e 493 577 3.0
e 493 67 1.0
e 494 374 34.0
e 494 382 48.0
e 494 203 37.0
e 494 491 29.0
e 494 271 1.0
e 495 390 1.0
e 495 328 2.0
e 495 453 1.0
e 495 612 14.0
e 496 68 1.0
e 496 307 3.0
e 496 419 1.0
e 496 352 1.0
e 497 192 1.0
e 497 539 1.0
e 497 527 1.0
e 497 59 1.0
e 498 50 1.0
e 498 167 1.0
e 498 307 32.0
e 499 81 1.0
e 499 633 1.0
e 499 163 1.0
e 499 570 1.0
e 500 404 2.0
e 500 624 2.0
e 500 531 2.0
e 500 261 1.0
e 501 433 1.0
e 501 183 1.0
e 501 555 1.0
e 501 121 2.0
e 502 12 1.0
e 502 414 1.0
e 502 465 46.0
e 502 267 1.0
e 503 638 20.0
e 503 599 45.0
e 503 570 2.0
e 503 412 19.0
e 504 501 1.0
e 504 514 1.0
e 504 461 1.0
e 505 68 1.0
e 505 615 1.0
e 505 156 2.0
e 505 312 1.0
e 506 356 32.0
e 506 170 34.0
e 506 393 38.0
e 506 256 18.0
e 506 188 35.0
e 507 530 1.0
e 507 377 1.0
e 507 500 1.0
e 507 340 2.0
e 508 42 1.0
e 508 465 8.0
e 508 73 2.0
e 508 180 2.0
e 509 57 2.0
e 509 74 1.0
e 509 126 1.0
e 509 290 1.0
e 510 611 2.0
e 510 57 2.0
e 510 104 2.0
e 510 228 2.0
e 511 17 1.0
e 511 63 1.0
e 511 627 3.0
e 511 492 2.0
e 512 251 21.0
e 512 378 1.0
e 512 296 31.0
e 512 368 1.0
e 513 397 1.0
e 513 539 1.0
e 513 617 1.0
e 514 75 27.0
e 514 441 1.0
e 514 178 2.0
e 514 278 2.0
e 515 233 1.0
e 515 234 15.0
e 515 275 9.0
e 515 423 2.0
e 516 604 2.0
e 516 371 1.0
e 516 327 41.0
e 516 603 2.0
e 517 242 16.0
e 517 285 22.0
e 517 412 21.0
e 517 457 36.0
e 517 399 2.0
e 517 542 41.0
e 517 275 47.0
e 517 467 5.0
e 518 42 1.0
e 518 311 1.0
e 518 550 2.0
e 518 279 1.0
e 519 411 1.0
e 519 173 2.0
e 519 141 19.0
e 519 39 1.0
e 520 632 2.0
e 520 58 36.0
e 520 373 2.0
e 520 359 2.0
e 521 341 15.0
e 521 25 10.0
e 521 567 2.0
e 521 186 23.0
e 522 599 1.0
e 522 235 1.0
e 522 544 1.0
e 522 77 1.0
e 523 225 1.0
e 523 560 1.0
e 523 125 1.0
e 523 218 1.0
e 524 3 1.0
e 524 200 1.0
e 524 223 4.0
e 524 121 1.0
e 525 322 1.0
e 525 313 1.0
e 525 387 10.0
e 525 255 1.0
e 526 381 1.0
e 526 448 1.0
e 526 320 1.0
e 526 615 1.0
e 527 268 2.0
e 527 315 1.0
e 527 634 1.0
e 528 79 40.0
e 528 435 1.0
e 528 462 1.0
e 528 183 1.0
e 529 211 1.0
e 529 365 1.0
e 529 121 2.0
e 529 150 1.0
e 530 64 1.0
e 530 203 1.0
e 530 157 3.0
e 530 304 1.0
e 531 618 2.0
e 531 550 1.0
e 531 353 2.0
e 531 40 12.0
e 532 325 1.0
e 532 526 1.0
e 532 584 1.0
e 532 1 1.0
e 533 432 1.0
e 533 409 1.0
e 533 267 2.0
e 533 203 2.0
e 534 272 1.0
e 534 311 1.0
e 534 343 1.0
e 534 339 1.0
e 535 186 1.0
e 535 178 1.0
e 535 179 1.0
e 535 345 1.0
e 536 85 1.0
e 536 232 1.0
e 536 563 1.0
e 536 609 2.0
e 537 584 1.0
e 537 494 12.0
e 537 239 1.0
e 537 267 1.0
e 538 164 1.0
e 538 629 1.0
e 538 561 1.0
e 538 413 1.0
e 539 264 29.0
e 539 48 1.0
e 539 59 1.0
e 539 413 2.0
e 540 70 2.0
e 540 324 5.0
e 540 150 1.0
e 540 369 2.0
e 541 330 36.0
e 541 338 1.0
e 541 215 1.0
e 541 166 2.0
e 542 430 20.0
e 542 398 30.0
e 542 457 6.0
e 542 525 19.0
e 543 629 1.0
e 543 242 1.0
e 543 38 1.0
e 543 167 1.0
e 544 318 1.0
e 544 603 1.0
e 544 13 1.0
e 544 417 11.0
e 545 615 2.0
e 545 420 1.0
e 545 496 1.0
e 545 79 31.0
e 546 74 1.0
e 546 380 1.0
e 546 367 3.0
e 546 118 2.0
e 547 39 1.0
e 547 587 2.0
e 547 294 2.0
e 547 466 1.0
e 548 570 1.0
e 548 151 23.0
e 548 623 2.0
e 548 245 1.0
e 549 431 1.0
e 549 61 40.0
e 549 167 1.0
e 549 635 2.0
e 550 285 1.0
e 550 361 1.0
e 550 127 1.0
e 550 559 2.0
e 551 595 1.0
e 551 29 1.0
e 551 170 2.0
e 551 88 1.0
e 552 59 1.0
e 552 539 1.0
e 552 165 2.0
e 552 143 1.0
e 553 370 2.0
e 553 202 2.0
e 553 34 1.0
e 553 594 1.0
e 554 208 1.0
e 554 444 2.0
e 554 538 2.0
e 554 58 4.0
e 555 347 1.0
e 555 629 1.0
e 555 106 1.0
e 555 496 1.0
e 556 317 2.0
e 556 272 3.0
e 556 39 2.0
e 556 103 1.0
e 557 395 2.0
e 557 627 2.0
e 557 60 2.0
e 557 253 1.0
e 558 29 1.0
e 558 276 1.0
e 558 385 1.0
e 558 181 2.0
e 559 225 2.0
e 559 72 2.0
e 559 565 1.0
e 559 494 30.0
e 560 501 2.0
e 560 195 2.0
e 560 274 1.0
e 560 430 1.0
e 561 381 2.0
e 561 101 2.0
e 561 104 2.0
e 561 599 2.0
e 562 170 1.0
e 562 254 1.0
e 562 96 1.0
e 562 58 2.0
e 563 289 1.0
e 563 208 3.0
e 563 295 1.0
e 563 240 1.0
e 564 79 6.0
e 564 294 14.0
e 564 399 33.0
e 564 545 2.0
e 565 483 5.0
e 565 211 1.0
e 565 637 1.0
e 565 219 1.0
e 566 213 1.0
e 566 608 1.0
e 566 196 1.0
e 566 108 1.0
e 567 439 1.0
e 567 102 13.0
e 567 117 1.0
e 567 49 2.0
e 568 461 1.0
e 568 254 1.0
e 568 324 22.0
e 568 340 1.0
e 569 102 34.0
e 569 43 1.0
e 569 56 1.0
e 569 594 1.0
e 570 427 1.0
e 570 329 1.0
e 570 9 1.0
e 571 522 1.0
e 571 170 2.0
e 571 499 1.0
e 571 505 1.0
e 572 296 17.0
e 572 428 1.0
e 572 553 2.0
e 572 363 1.0
e 573 93 1.0
e 573 584 1.0
e 573 138 1.0
e 573 52 1.0
e 574 604 1.0
e 574 453 1.0
e 574 633 2.0
e 574 203 1.0
e 575 400 1.0
e 575 340 2.0
e 575 549 1.0
e 575 414 1.0
e 576 184 1.0
e 576 332 1.0
e 576 68 1.0
e 576 475 1.0
e 577 252 1.0
e 577 342 1.0
e 577 567 1.0
e 577 441 1.0
e 578 155 3.0
e 578 156 2.0
e 578 29 2.0
e 579 66 1.0
e 579 106 1.0
e 579 246 2.0
e 579 134 1.0
e 580 217 2.0
e 580 288 1.0
e 580 593 12.0
e 580 337 1.0
e 581 178 2.0
e 581 177 1.0
e 581 288 1.0
e 581 533 2.0
e 582 530 1.0
e 582 517 25.0
e 582 388 46.0
e 582 593 30.0
e 583 407 1.0
e 583 500 2.0
e 583 268 1.0
e 583 600 1.0
e 584 27 1.0
e 584 310 1.0
e 584 81 1.0
e 584 467 7.0
e 585 558 1.0
e 585 255 1.0
e 585 323 1.0
e 585 216 2.0
e 586 261 1.0
e 586 392 1.0
e 586 371 1.0
e 587 36 1.0
e 587 536 1.0
e 587 401 3.0
e 587 336 2.0
e 588 144 1.0
e 588 60 2.0
e 588 331 1.0
e 588 240 1.0
e 589 68 1.0
e 589 22 1.0
e 589 620 1.0
e 590 502 1.0
e 590 288 1.0
e 590 328 2.0
e 590 456 1.0
e 591 563 2.0
e 591 509 1.0
e 591 139 2.0
e 591 179 1.0
e 592 271 15.0
e 592 122 1.0
e 592 368 1.0
e 592 204 1.0
e 593 590 25.0
e 593 89 12.0
e 593 186 11.0
e 593 278 23.0
e 594 361 1.0
e 594 360 1.0
e 594 210 1.0
e 594 96 1.0
e 595 441 1.0
e 595 417 42.0
e 595 132 1.0
e 595 278 2.0
e 596 551 40.0
e 596 74 24.0
e 596 77 15.0
e 596 344 1.0
e 597 81 2.0
e 597 297 1.0
e 597 53 2.0
e 597 195 1.0
e 598 21 1.0
e 598 634 1.0
e 598 280 2.0
e 598 101 1.0
e 599 498 1.0
e 599 526 1.0
e 599 28 1.0
e 599 163 1.0
e 600 337 1.0
e 600 593 46.0
e 600 90 1.0
e 600 242 2.0
e 601 490 1.0
e 601 103 1.0
e 601 175 1.0
e 601 122 2.0
e 602 608 20.0
e 602 97 28.0
e 602 117 39.0
e 602 431 41.0
e 603 137 1.0
e 603 20 1.0
e 603 585 1.0
e 603 484 1.0
e 604 50 2.0
e 604 56 1.0
e 604 612 45.0
e 604 344 2.0
e 605 290 1.0
e 605 369 1.0
e 605 398 1.0
e 605 366 1.0
e 606 544 1.0
e 606 44 2.0
e 606 115 1.0
e 606 587 1.0
e 607 156 21.0
e 607 560 28.0
e 607 480 43.0
e 607 174 6.0
e 608 109 1.0
e 608 193 1.0
e 608 604 2.0
e 608 538 1.0
e 609 293 3.0
e 609 210 2.0
e 609 223 19.0
e 609 106 1.0
e 610 267 1.0
e 610 512 1.0
e 610 36 1.0
e 610 455 1.0
e 611 149 1.0
e 611 374 1.0
e 611 442 1.0
e 611 120 1.0
e 612 236 42.0
e 612 99 21.0
e 612 459 19.0
e 612 245 7.0
e 613 171 1.0
e 613 197 1.0
e 613 497 1.0
e 613 352 1.0
e 614 346 3.0
e 614 599 1.0
e 614 504 2.0
e 614 356 1.0
e 615 124 1.0
e 615 504 1.0
e 615 585 1.0
e 615 447 1.0
e 616 43 4.0
e 616 558 45.0
e 616 392 38.0
e 616 537 9.0
e 616 521 15.0
e 616 388 12.0
e 616 436 20.0
e 617 206 3.0
e 617 112 3.0
e 617 108 1.0
e 617 486 2.0
e 618 229 2.0
e 618 170 2.0
e 618 364 49.0
e 618 492 2.0
e 619 508 3.0
e 619 166 2.0
e 619 74 1.0
e 619 121 1.0
e 620 383 1.0
e 620 189 2.0
e 620 110 7.0
e 620 427 1.0
e 621 472 47.0
e 621 71 20.0
e 621 53 20.0
e 621 553 43.0
e 621 607 21.0
e 621 141 48.0
e 622 539 1.0
e 622 391 1.0
e 622 180 1.0
e 622 312 1.0
e 623 139 2.0
e 623 541 1.0
e 623 82 1.0
e 623 25 1.0
e 624 147 2.0
e 624 413 3.0
e 624 260 1.0
e 625 565 45.0
e 625 61 14.0
e 625 277 5.0
e 625 251 32.0
e 625 287 29.0
e 626 354 5.0
e 626 362 20.0
e 626 36 31.0
e 626 148 41.0
e 626 472 43.0
e 626 476 15.0
e 627 282 2.0
e 627 359 2.0
e 627 630 44.0
e 627 150 1.0
e 628 141 22.0
e 628 181 1.0
e 628 138 1.0
e 628 151 28.0
e 629 334 1.0
e 629 281 1.0
e 629 201 2.0
e 630 439 6.0
e 630 226 32.0
e 630 372 2.0
e 630 265 17.0
e 630 616 9.0
e 630 189 11.0
e 631 230 1.0
e 631 43 1.0
e 631 398 2.0
e 631 267 1.0
e 632 116 30.0
e 632 585 1.0
e 632 413 1.0
e 632 558 2.0
e 633 558 1.0
e 633 504 2.0
e 633 473 2.0
e 633 29 1.0
e 634 567 1.0
e 634 537 1.0
e 634 231 1.0
e 634 599 1.0
e 635 345 1.0
e 635 325 2.0
e 635 594 1.0
e 635 569 2.0
e 636 17 5.0
e 636 55 2.0
e 636 146 26.0
e 636 247 22.0
e 637 260 1.0
e 637 271 18.0
e 637 40 38.0
e 637 185 37.0
e 638 524 2.0
e 638 617 1.0
e 638 624 2.0
e 638 337 1.0
e 639 411 2.0
e 639 225 1.0
e 639 153 1.0
e 639 51 1.0
